LAMMPS (7 Feb 2024 - Update 1)
OMP_NUM_THREADS environment is not set. Defaulting to 1 thread. (src/comm.cpp:98)
  using 1 OpenMP thread(s) per MPI task
# LAMMPS Input Script: Shock Wave Propagation in Aluminum
# Rania Zaier - 2026

# Initialization
units           metal
dimension       3
boundary        p p p
atom_style      atomic

# Create aluminum FCC lattice
lattice         fcc 4.05
Lattice spacing in x,y,z = 4.05 4.05 4.05
region          box block 0 20 0 10 0 10
create_box      1 box
Created orthogonal box = (0 0 0) to (81 40.5 40.5)
  1 by 1 by 1 MPI processor grid
create_atoms    1 box
Created 8000 atoms
  using lattice units in orthogonal box = (0 0 0) to (81 40.5 40.5)
  create_atoms CPU = 0.001 seconds
mass            1 26.98

# EAM potential for Aluminum
pair_style      eam/alloy
pair_coeff      * * Al99.eam.alloy Al

# Initial velocity (thermal)
velocity        all create 300.0 87287 mom yes rot yes dist gaussian

# Define regions for shock generation
region          impact block 0 2 INF INF INF INF
group           impact region impact
1000 atoms in group impact

# Time integration
timestep        0.001

# Compute properties
compute         temp all temp
compute         press all pressure thermo_temp
compute         pe all pe/atom
compute         ke all ke/atom

# Thermodynamic output
thermo          100
thermo_style    custom step temp press pe ke vol

# Dump atom positions for visualization
dump            1 all custom 200 dump.lammpstrj id type x y z vx vy vz c_pe c_ke
dump_modify     1 sort id

# Apply shock impulse
velocity        impact set 5.0 0.0 0.0 units box

# NVE ensemble
fix             1 all nve

# Run simulation
run             10000
Neighbor list info ...
  update: every = 1 steps, delay = 0 steps, check = yes
  max neighbors/atom: 2000, page size: 100000
  master list distance cutoff = 8.28721
  ghost atom cutoff = 8.28721
  binsize = 4.143605, bins = 20 10 10
  1 neighbor lists, perpetual/occasional/extra = 1 0 0
  (1) pair eam/alloy, perpetual
      attributes: half, newton on
      pair build: half/bin/atomonly/newton
      stencil: half/bin/3d
      bin: standard
Per MPI rank memory allocation (min/avg/max) = 8.578 | 8.578 | 8.578 Mbytes
   Step          Temp          Press          PotEng         KinEng         Volume    
         0   297.66911      2477.0598     -26880          307.77554      132860.25    
       100   168.55194      3303.2073     -26746.449      174.2746       132860.25    
       200   140.95147      3964.9547     -26717.899      145.73704      132860.25    
       300   149.9122       3880.3853     -26727.173      155.002        132860.25    
       400   148.07527      3878.6767     -26725.273      153.1027       132860.25    
       500   149.23189      3880.5519     -26726.469      154.2986       132860.25    
       600   159.92582      3768.9247     -26737.526      165.35561      132860.25    
       700   155.18731      3817.5066     -26732.627      160.45622      132860.25    
       800   148.10453      3851.2928     -26725.303      153.13296      132860.25    
       900   151.47984      3827.3155     -26728.794      156.62286      132860.25    
      1000   153.41082      3793.9369     -26730.791      158.61941      132860.25    
      1100   151.82779      3772.0034     -26729.153      156.98263      132860.25    
      1200   153.32744      3812.9292     -26730.702      158.5332       132860.25    
      1300   161.9016       3762.2971     -26739.569      167.39847      132860.25    
      1400   145.24604      3847.3563     -26722.347      150.17742      132860.25    
      1500   150.44651      3803.6962     -26727.724      155.55446      132860.25    
      1600   147.43682      3789.7911     -26724.612      152.44258      132860.25    
      1700   149.26265      3792.6741     -26726.501      154.33041      132860.25    
      1800   152.56104      3756.7748     -26729.911      157.74078      132860.25    
      1900   161.60227      3741.7506     -26739.26       167.08897      132860.25    
      2000   152.00981      3780.5656     -26729.342      157.17083      132860.25    
      2100   153.36294      3789.9903     -26730.741      158.5699       132860.25    
      2200   149.16801      3784.5776     -26726.403      154.23255      132860.25    
      2300   152.3267       3745.4749     -26729.67       157.49848      132860.25    
      2400   149.234        3796.9545     -26726.47       154.30077      132860.25    
      2500   157.72019      3796.8428     -26735.245      163.07509      132860.25    
      2600   153.483        3813.7814     -26730.864      158.69403      132860.25    
      2700   147.70143      3781.6766     -26724.887      152.71618      132860.25    
      2800   148.54766      3781.3032     -26725.761      153.59113      132860.25    
      2900   151.28146      3783.7179     -26728.589      156.41775      132860.25    
      3000   151.75038      3767.924      -26729.073      156.90259      132860.25    
      3100   154.59227      3783.6062     -26732.01       159.84097      132860.25    
      3200   158.63077      3764.4365     -26736.187      164.01658      132860.25    
      3300   146.26678      3824.1779     -26723.403      151.23281      132860.25    
      3400   153.72338      3788.3307     -26731.113      158.94258      132860.25    
      3500   148.00855      3803.478      -26725.204      153.03373      132860.25    
      3600   150.95584      3796.8326     -26728.251      156.08108      132860.25    
      3700   156.89144      3708.7319     -26734.39       162.2182       132860.25    
      3800   159.50739      3748.6535     -26737.094      164.92297      132860.25    
      3900   147.37179      3790.3351     -26724.545      152.37534      132860.25    
      4000   151.87987      3722.0825     -26729.207      157.03648      132860.25    
      4100   149.58455      3799.2691     -26726.833      154.66323      132860.25    
      4200   151.48448      3760.9643     -26728.798      156.62767      132860.25    
      4300   153.33105      3763.1625     -26730.708      158.53693      132860.25    
      4400   157.28491      3772.809      -26734.795      162.62503      132860.25    
      4500   153.12401      3783.0674     -26730.494      158.32286      132860.25    
      4600   149.13189      3777.3913     -26726.367      154.1952       132860.25    
      4700   153.01716      3766.2575     -26730.383      158.21238      132860.25    
      4800   149.99847      3761.9964     -26727.262      155.0912       132860.25    
      4900   152.70815      3777.975      -26730.063      157.89288      132860.25    
      5000   158.6976       3771.9725     -26736.256      164.08568      132860.25    
      5100   156.27369      3750.781      -26733.75       161.57948      132860.25    
      5200   147.36625      3788.8293     -26724.541      152.36961      132860.25    
      5300   149.95835      3817.5744     -26727.219      155.04972      132860.25    
      5400   148.78782      3787.1893     -26726.01       153.83945      132860.25    
      5500   154.5109       3747.1016     -26731.928      159.75683      132860.25    
      5600   154.05433      3777.518      -26731.455      159.28477      132860.25    
      5700   158.06417      3768.9072     -26735.602      163.43075      132860.25    
      5800   147.90348      3794.5281     -26725.096      152.92508      132860.25    
      5900   150.95296      3805.0064     -26728.249      156.0781       132860.25    
      6000   150.19131      3790.1537     -26727.461      155.29059      132860.25    
      6100   148.29755      3787.6052     -26725.503      153.33253      132860.25    
      6200   154.67643      3772.1856     -26732.099      159.92799      132860.25    
      6300   158.08251      3800.6617     -26735.62       163.44971      132860.25    
      6400   149.1119       3795.1613     -26726.345      154.17454      132860.25    
      6500   146.73909      3786.8489     -26723.892      151.72116      132860.25    
      6600   153.60505      3777.1255     -26730.991      158.82023      132860.25    
      6700   150.42503      3788.4172     -26727.703      155.53224      132860.25    
      6800   154.1956       3804.711      -26731.601      159.43083      132860.25    
      6900   155.25394      3780.001      -26732.695      160.5251       132860.25    
      7000   152.64827      3827.9704     -26730.001      157.83097      132860.25    
      7100   146.42215      3855.355      -26723.564      151.39346      132860.25    
      7200   152.51018      3787.6429     -26729.859      157.68819      132860.25    
      7300   150.8706       3805.6935     -26728.164      155.99294      132860.25    
      7400   152.51303      3762.0124     -26729.862      157.69113      132860.25    
      7500   156.26059      3795.2659     -26733.736      161.56593      132860.25    
      7600   156.96213      3769.4221     -26734.462      162.2913       132860.25    
      7700   145.44964      3825.7012     -26722.558      150.38793      132860.25    
      7800   149.74718      3787.0212     -26727.002      154.83139      132860.25    
      7900   151.86865      3811.6813     -26729.196      157.02488      132860.25    
      8000   149.28959      3808.5735     -26726.528      154.35826      132860.25    
      8100   155.95964      3824.872      -26733.425      161.25476      132860.25    
      8200   152.91558      3812.4751     -26730.277      158.10736      132860.25    
      8300   147.34548      3807.9622     -26724.519      152.34814      132860.25    
      8400   148.25209      3786.2678     -26725.456      153.28553      132860.25    
      8500   151.27003      3773.1321     -26728.576      156.40594      132860.25    
      8600   149.24415      3840.6895     -26726.481      154.31127      132860.25    
      8700   156.53056      3802.125      -26734.016      161.84507      132860.25    
      8800   156.44978      3772.3687     -26733.933      161.76155      132860.25    
      8900   153.90551      3737.6441     -26731.302      159.13089      132860.25    
      9000   146.26668      3773.7451     -26723.403      151.23271      132860.25    
      9100   152.98163      3761.4128     -26730.347      158.17565      132860.25    
      9200   153.02271      3725.6307     -26730.389      158.21813      132860.25    
      9300   152.46741      3803.0535     -26729.814      157.64397      132860.25    
      9400   156.12227      3851.9431     -26733.593      161.42292      132860.25    
      9500   152.6425       3821.0526     -26729.996      157.82501      132860.25    
      9600   146.55499      3774.3013     -26723.702      151.53081      132860.25    
      9700   151.48172      3805.8788     -26728.796      156.62481      132860.25    
      9800   151.87623      3762.7832     -26729.204      157.03272      132860.25    
      9900   152.07574      3776.5983     -26729.41       157.239        132860.25    
     10000   158.0286       3796.5588     -26735.565      163.39397      132860.25    
Loop time of 71.4385 on 1 procs for 10000 steps with 8000 atoms

Performance: 12.094 ns/day, 1.984 hours/ns, 139.981 timesteps/s, 1.120 Matom-step/s
102.1% CPU use with 1 MPI tasks x 1 OpenMP threads

MPI task timing breakdown:
Section |  min time  |  avg time  |  max time  |%varavg| %total
---------------------------------------------------------------
Pair    | 69.841     | 69.841     | 69.841     |   0.0 | 97.76
Neigh   | 0.14832    | 0.14832    | 0.14832    |   0.0 |  0.21
Comm    | 0.33885    | 0.33885    | 0.33885    |   0.0 |  0.47
Output  | 0.43532    | 0.43532    | 0.43532    |   0.0 |  0.61
Modify  | 0.40666    | 0.40666    | 0.40666    |   0.0 |  0.57
Other   |            | 0.268      |            |       |  0.38

Nlocal:           8000 ave        8000 max        8000 min
Histogram: 1 0 0 0 0 0 0 0 0 0
Nghost:          12177 ave       12177 max       12177 min
Histogram: 1 0 0 0 0 0 0 0 0 0
Neighs:         559282 ave      559282 max      559282 min
Histogram: 1 0 0 0 0 0 0 0 0 0

Total # of neighbors = 559282
Ave neighs/atom = 69.91025
Neighbor list builds = 15
Dangerous builds = 0

write_data      final_config.data
System init for write_data ...

print           "Simulation completed!"
Simulation completed!

Total wall time: 0:01:11
